(set-info :smt-lib-version 2.6)
(set-logic QF_S)
(set-info :source |
Generated by: Murphy Berzish, Mitja Kulczynski, Federico Mora, Florin Manea, Joel Day, Dirk Nowotka, Vijay Ganesh, Zhengyang Lu
Generated on: 2020-10-01
Description: Translated from a collection of real-world regex queries, AutomataArk, collected by Loris D’Antoni and Fang Wang: https://github.com/lorisdanto/automatark
Application: Evaluate solvers on real-world regex queries
Target solver: Z3str3RE, CVC4, OSTRICH, Z3seq, Z3str3, Z3-Trau
Publications: Berzish, M., Kulczynski, M., Mora, F., Manea, F., Day, J. D., Nowotka, D., & Ganesh, V. (2021, July). An SMT solver for regular expressions and linear arithmetic over string length. In CAV 2021.
|)
(set-info :license "https://creativecommons.org/licenses/by/4.0/")
(set-info :category "industrial")
(set-info :status unknown)

(declare-const X String)
(assert (str.in_re X (re.++ (re.* re.allchar) (re.union (str.to_re "V") (str.to_re "v")) (re.union (str.to_re "I") (str.to_re "i") (str.to_re "1")) (str.to_re "agr") (re.* re.allchar) (str.to_re "\u{a}"))))
(assert (not (str.in_re X (re.++ (re.* re.allchar) (re.+ (re.union (str.to_re " ") (str.to_re "\u{9}") (str.to_re "\u{a}") (str.to_re "\u{c}") (str.to_re "\u{d}"))) (re.union (re.++ (re.+ (re.range "0" "9")) (re.opt (re.union (re.range "a" "z") (re.range "A" "Z"))) (re.opt (re.union (str.to_re " ") (str.to_re "\u{9}") (str.to_re "\u{a}") (str.to_re "\u{c}") (str.to_re "\u{d}"))) ((_ re.loop 1 1) (str.to_re "-")) (re.opt (re.union (str.to_re " ") (str.to_re "\u{9}") (str.to_re "\u{a}") (str.to_re "\u{c}") (str.to_re "\u{d}"))) (re.* (re.range "0" "9")) (re.opt (re.union (re.range "a" "z") (re.range "A" "Z")))) (re.++ (re.+ (re.range "0" "9")) (re.opt (re.union (re.range "a" "z") (re.range "A" "Z") (str.to_re "-"))) (re.* (re.range "0" "9")) (re.opt (re.union (re.range "a" "z") (re.range "A" "Z"))))) (str.to_re "\u{a}")))))
(assert (not (str.in_re X (re.++ (str.to_re "/filename=") (re.* (re.comp (str.to_re "\u{a}"))) (str.to_re ".pmd/i\u{a}")))))
(assert (str.in_re X (re.++ (str.to_re "corep.dmcast.com") (re.+ (re.union (str.to_re " ") (str.to_re "\u{9}") (str.to_re "\u{a}") (str.to_re "\u{c}") (str.to_re "\u{d}"))) (str.to_re "FunWebProducts") (re.union (str.to_re " ") (str.to_re "\u{9}") (str.to_re "\u{a}") (str.to_re "\u{c}") (str.to_re "\u{d}")) (str.to_re "Mycount.yok.comProBuilt-inBasicYWRtaW46cGFzc3dvcmQ\u{a}"))))
(assert (not (str.in_re X (re.++ (str.to_re "aresflashdownloader.com%3fccecaedbebfcaf.com") (re.union (str.to_re " ") (str.to_re "\u{9}") (str.to_re "\u{a}") (str.to_re "\u{c}") (str.to_re "\u{d}")) (str.to_re "toolbar.anwb.nl\u{a}")))))
(check-sat)

(exit)
